; benchmark generated from python API
(set-info :status unknown)
(declare-fun x_days () Int)
(declare-fun y_days () Int)
(assert
 (>= x_days (- 36584)))
(assert
 (<= x_days 36829))
(assert
 (>= y_days (- 36584)))
(assert
 (<= y_days 36829))
(assert
 (= x_days 7304))
(assert
 (let ((?x1982 (+ x_days 730179)))
 (let ((?x3083 (mod ?x1982 146097)))
 (let ((?x3238 (div ?x3083 36524)))
 (let ((?x2044 (ite (<= 4 ?x3238) 3 ?x3238)))
 (let ((?x2958 (- ?x3083 (* ?x2044 36524))))
 (let ((?x4178 (mod ?x2958 1461)))
 (let ((?x573 (div ?x4178 365)))
 (let ((?x1199 (ite (<= 4 ?x573) 3 ?x573)))
 (let ((?x367 (+ (+ (* (div ?x1982 146097) 400) (* ?x2044 100)) (* (div ?x2958 1461) 4))))
 (let ((?x575 (+ (+ ?x367 ?x1199) 1)))
 (let (($x4052 (or (and (= (mod ?x575 4) 0) (and (distinct (mod ?x575 100) 0) true)) (= (mod ?x575 400) 0))))
 (let ((?x2016 (- ?x4178 (* ?x1199 365))))
 (let ((?x3641 (ite $x4052 31 31)))
 (let (($x2575 (>= ?x2016 ?x3641)))
 (let ((?x3376 (ite $x2575 (+ (- ?x2016 ?x3641) 1) (+ (- ?x2016 (ite $x4052 0 0)) 1))))
 (let ((?x1998 (ite $x4052 60 59)))
 (let (($x3263 (>= ?x2016 ?x1998)))
 (let ((?x2685 (ite $x4052 91 90)))
 (let (($x2209 (>= ?x2016 ?x2685)))
 (let ((?x2411 (ite $x2209 (+ (- ?x2016 ?x2685) 1) (ite $x3263 (+ (- ?x2016 ?x1998) 1) ?x3376))))
 (let ((?x2202 (ite $x4052 121 120)))
 (let (($x2029 (>= ?x2016 ?x2202)))
 (let ((?x2099 (ite $x4052 152 151)))
 (let (($x4846 (>= ?x2016 ?x2099)))
 (let ((?x3301 (ite $x4846 (+ (- ?x2016 ?x2099) 1) (ite $x2029 (+ (- ?x2016 ?x2202) 1) ?x2411))))
 (let ((?x2363 (ite $x4052 182 181)))
 (let (($x4835 (>= ?x2016 ?x2363)))
 (let ((?x4464 (ite $x4052 213 212)))
 (let (($x1759 (>= ?x2016 ?x4464)))
 (let ((?x1289 (ite $x1759 (+ (- ?x2016 ?x4464) 1) (ite $x4835 (+ (- ?x2016 ?x2363) 1) ?x3301))))
 (let ((?x1355 (ite $x4052 244 243)))
 (let (($x1016 (>= ?x2016 ?x1355)))
 (let ((?x4018 (ite $x4052 274 273)))
 (let (($x2822 (>= ?x2016 ?x4018)))
 (let ((?x3339 (ite $x2822 (+ (- ?x2016 ?x4018) 1) (ite $x1016 (+ (- ?x2016 ?x1355) 1) ?x1289))))
 (let ((?x1397 (ite $x4052 305 304)))
 (let (($x4098 (>= ?x2016 ?x1397)))
 (let ((?x1268 (ite $x4052 335 334)))
 (let (($x3514 (>= ?x2016 ?x1268)))
 (let ((?x2642 (ite $x3514 (+ (- ?x2016 ?x1268) 1) (ite $x4098 (+ (- ?x2016 ?x1397) 1) ?x3339))))
 (let ((?x1405 (+ (* 1 12) 0)))
 (let ((?x2032 (ite $x2029 5 (ite $x2209 4 (ite $x3263 3 (ite $x2575 2 1))))))
 (let ((?x2626 (ite $x1016 9 (ite $x1759 8 (ite $x4835 7 (ite $x4846 6 ?x2032))))))
 (let ((?x553 (- (+ (ite $x3514 12 (ite $x4098 11 (ite $x2822 10 ?x2626))) ?x1405) 1)))
 (let ((?x4265 (+ (mod ?x553 12) 1)))
 (let ((?x2811 (ite (or (= ?x4265 4) (= ?x4265 6) (= ?x4265 9) (= ?x4265 11)) 30 31)))
 (let (($x3912 (and (= (mod (+ ?x575 (+ 0 (div ?x553 12))) 4) 0) (and (distinct (mod (+ ?x575 (+ 0 (div ?x553 12))) 100) 0) true))))
 (let (($x4568 (or $x3912 (= (mod (+ ?x575 (+ 0 (div ?x553 12))) 400) 0))))
 (let ((?x4794 (ite (= ?x4265 2) (ite $x4568 29 28) ?x2811)))
 (let ((?x3386 (ite (> 1 ?x2642) 1 (ite (> ?x2642 ?x4794) ?x4794 ?x2642))))
 (let ((?x3657 (ite (> 1 ?x3386) 1 (ite (> ?x3386 ?x4794) ?x4794 ?x3386))))
 (let ((?x4755 (ite (= 2 ?x4265) (ite $x4568 31 31) (ite (= 1 ?x4265) (ite $x4568 0 0) 0))))
 (let ((?x261 (ite (= 4 ?x4265) (ite $x4568 91 90) (ite (= 3 ?x4265) (ite $x4568 60 59) ?x4755))))
 (let ((?x4285 (ite (= 6 ?x4265) (ite $x4568 152 151) (ite (= 5 ?x4265) (ite $x4568 121 120) ?x261))))
 (let ((?x1578 (ite (= 8 ?x4265) (ite $x4568 213 212) (ite (= 7 ?x4265) (ite $x4568 182 181) ?x4285))))
 (let ((?x3030 (ite (= 10 ?x4265) (ite $x4568 274 273) (ite (= 9 ?x4265) (ite $x4568 244 243) ?x1578))))
 (let ((?x398 (ite (= 12 ?x4265) (ite $x4568 335 334) (ite (= 11 ?x4265) (ite $x4568 305 304) ?x3030))))
 (let ((?x2722 (+ (* 365 (- (+ ?x575 (+ 0 (div ?x553 12))) 1)) (div (- (+ ?x575 (+ 0 (div ?x553 12))) 1) 4))))
 (let ((?x1946 (+ (- ?x2722 (div (- (+ ?x575 (+ 0 (div ?x553 12))) 1) 100)) (div (- (+ ?x575 (+ 0 (div ?x553 12))) 1) 400))))
 (let ((?x697 (+ (+ (- (+ (+ ?x1946 ?x398) (- ?x3657 1)) 730179) 0) 730179)))
 (let ((?x831 (mod ?x697 146097)))
 (let ((?x2071 (div ?x831 36524)))
 (let ((?x4804 (ite (<= 4 ?x2071) 3 ?x2071)))
 (let ((?x3479 (- ?x831 (* ?x4804 36524))))
 (let ((?x2238 (mod ?x3479 1461)))
 (let ((?x1847 (div ?x2238 365)))
 (let ((?x2455 (ite (<= 4 ?x1847) 3 ?x1847)))
 (let ((?x2566 (+ (+ (* (div ?x697 146097) 400) (* ?x4804 100)) (* (div ?x3479 1461) 4))))
 (let ((?x2056 (+ (+ ?x2566 ?x2455) 1)))
 (let (($x2228 (or (and (= (mod ?x2056 4) 0) (and (distinct (mod ?x2056 100) 0) true)) (= (mod ?x2056 400) 0))))
 (let ((?x3687 (- ?x2238 (* ?x2455 365))))
 (let ((?x1454 (ite $x2228 31 31)))
 (let (($x2193 (>= ?x3687 ?x1454)))
 (let ((?x1432 (ite $x2193 (+ (- ?x3687 ?x1454) 1) (+ (- ?x3687 (ite $x2228 0 0)) 1))))
 (let ((?x3021 (ite $x2228 60 59)))
 (let (($x4856 (>= ?x3687 ?x3021)))
 (let ((?x2028 (ite $x2228 91 90)))
 (let (($x1275 (>= ?x3687 ?x2028)))
 (let ((?x4050 (ite $x1275 (+ (- ?x3687 ?x2028) 1) (ite $x4856 (+ (- ?x3687 ?x3021) 1) ?x1432))))
 (let ((?x2144 (ite $x2228 121 120)))
 (let (($x1449 (>= ?x3687 ?x2144)))
 (let ((?x1749 (ite $x2228 152 151)))
 (let (($x2676 (>= ?x3687 ?x1749)))
 (let ((?x3489 (ite $x2676 (+ (- ?x3687 ?x1749) 1) (ite $x1449 (+ (- ?x3687 ?x2144) 1) ?x4050))))
 (let ((?x2180 (ite $x2228 182 181)))
 (let (($x3418 (>= ?x3687 ?x2180)))
 (let ((?x3285 (ite $x2228 213 212)))
 (let (($x3568 (>= ?x3687 ?x3285)))
 (let ((?x1145 (ite $x3568 (+ (- ?x3687 ?x3285) 1) (ite $x3418 (+ (- ?x3687 ?x2180) 1) ?x3489))))
 (let ((?x4844 (ite $x2228 244 243)))
 (let (($x1865 (>= ?x3687 ?x4844)))
 (let ((?x3556 (ite $x2228 274 273)))
 (let (($x3275 (>= ?x3687 ?x3556)))
 (let ((?x2225 (ite $x3275 (+ (- ?x3687 ?x3556) 1) (ite $x1865 (+ (- ?x3687 ?x4844) 1) ?x1145))))
 (let ((?x4478 (ite $x2228 305 304)))
 (let (($x2376 (>= ?x3687 ?x4478)))
 (let ((?x3731 (ite $x2228 335 334)))
 (let (($x3488 (>= ?x3687 ?x3731)))
 (let ((?x1267 (ite $x3488 (+ (- ?x3687 ?x3731) 1) (ite $x2376 (+ (- ?x3687 ?x4478) 1) ?x2225))))
 (let (($x1367 (= 0 0)))
 (let (($x4545 (= (mod (ite $x1367 (+ ?x575 (+ 0 (div ?x553 12))) ?x2056) 400) 0)))
 (let (($x3093 (and (distinct (mod (ite $x1367 (+ ?x575 (+ 0 (div ?x553 12))) ?x2056) 100) 0) true)))
 (let (($x2832 (= (mod (ite $x1367 (+ ?x575 (+ 0 (div ?x553 12))) ?x2056) 4) 0)))
 (let (($x4122 (or (and $x2832 $x3093) $x4545)))
 (let ((?x2980 (ite $x1449 5 (ite $x1275 4 (ite $x4856 3 (ite $x2193 2 1))))))
 (let ((?x2951 (ite $x1865 9 (ite $x3568 8 (ite $x3418 7 (ite $x2676 6 ?x2980))))))
 (let ((?x516 (ite $x1367 ?x4265 (ite $x3488 12 (ite $x2376 11 (ite $x3275 10 ?x2951))))))
 (let ((?x1883 (ite (= 2 ?x516) (ite $x4122 31 31) (ite (= 1 ?x516) (ite $x4122 0 0) 0))))
 (let ((?x3720 (ite (= 4 ?x516) (ite $x4122 91 90) (ite (= 3 ?x516) (ite $x4122 60 59) ?x1883))))
 (let ((?x3354 (ite (= 6 ?x516) (ite $x4122 152 151) (ite (= 5 ?x516) (ite $x4122 121 120) ?x3720))))
 (let ((?x3041 (ite (= 8 ?x516) (ite $x4122 213 212) (ite (= 7 ?x516) (ite $x4122 182 181) ?x3354))))
 (let ((?x1468 (ite (= 10 ?x516) (ite $x4122 274 273) (ite (= 9 ?x516) (ite $x4122 244 243) ?x3041))))
 (let ((?x3464 (ite (= 12 ?x516) (ite $x4122 335 334) (ite (= 11 ?x516) (ite $x4122 305 304) ?x1468))))
 (let ((?x2860 (+ ?x575 (+ 0 (div ?x553 12)))))
 (let ((?x4330 (ite $x1367 ?x2860 ?x2056)))
 (let ((?x2792 (- ?x4330 1)))
 (let ((?x2090 (+ (- (+ (* 365 ?x2792) (div ?x2792 4)) (div ?x2792 100)) (div ?x2792 400))))
 (= y_days (- (+ (+ ?x2090 ?x3464) (- (ite $x1367 ?x3657 ?x1267) 1)) 730179))))))))))))))))))))))))))))))))))))))))))))))))))))))))))))))))))))))))))))))))))))))))))))))))))))))))))))))))))))))))
(assert
 (not (= y_days 7669)))
(check-sat)
